10
0   8170   5329   5055   6758   4931   9304   3930   7562   2261   
8170   0   312   6192   7236   6125   8389   4301   750   4835   
5329   312   0   696   2565   1804   0   7284   9215   6381   
5055   6192   696   0   5693   4056   8415   11405   1892   5455   
6758   7236   2565   5693   0   7447   9161   4455   10118   1853   
4931   6125   1804   4056   7447   0   3699   7547   8574   1393   
9304   8389   0   8415   9161   3699   0   11405   1529   7796   
3930   4301   7284   11405   4455   7547   11405   0   3980   8496   
7562   750   9215   1892   10118   8574   1529   3980   0   1560   
2261   4835   6381   5455   1853   1393   7796   8496   1560   0   
